5 5
8 3 1 19 2 15 5 18 3 5 18 2 16 3 20 3 3 2 5 6 2 10 2 3 8 2 9 2 4 6 1 15 2 3 4 2 19 5 4 2 5 19 1 6 3 12 2 11 4 2 12 4 18 5 3 3 4
5 1 5 10 5 2 9 4 4 1 9 3 12 5 2 2 5 14 2 5 4 3 10 5 13 4 3 2 18 5 4 11 3 10 2 13 1 6 5 5
7 5 5 6 4 9 2 2 3 20 1 16 1 4 6 3 5 10 3 4 2 16 2 5 20 3 3 4 1 11 3 19 5 3 2 10 1 3 7 2 5 20 2 10
6 1 3 13 5 3 3 5 11 4 8 1 19 2 2 1 1 14 5 5 4 1 19 3 18 2 7 4 10 3 3 17 4 6 1 15 3 4 9 2 4 5 3
6 4 5 18 1 5 2 13 3 20 5 1 11 3 2 5 13 2 19 4 9 1 3 9 5 5 6 1 12 4 7 3 2 2 20 5 1 15 4 5 3 14 5 14 2 18 4 1 5 4 2 5 14 2 16